unsat
(:cnf-encoding-aux-vars   52
 :eliminated-applications 4
 :eliminated-vars         45
 :max-memory              18.50
 :memory                  18.17
 :nlsat-conflicts         32
 :nlsat-decisions         286
 :nlsat-learned-added     31
 :nlsat-propagations      321
 :num-allocs              13475
 :rlimit-count            36706
 :time                    0.01
 :total-time              0.02)
